Traveling Salesman Problem/TSP_generados/Aleatorio1621103515_15.tsp
NAME: Aleatorio1621103515_15.tsp
COMMENT: Randomly generated scenario
TYPE: TSP
DIMENSION: 15
EDGE_WEIGHT_TYPE: ATT
NODE_COORD_SECTION
1 46.09 1.36
2 3.15 34.53
3 3.89 29.07
4 35.13 45.61
5 37.31 9.82
6 33.45 20.9
7 48.08 36.81
8 15.45 25.04
9 37.72 34.98
10 29.97 9.18
11 29.93 31.39
12 27.5 19.16
13 0.43 31.77
14 27.83 14.44
15 0.28 12.78
