Traveling Salesman Problem/TSP_generados/Aleatorio1621103515_15.opt.tour
NAME: Aleatorio1621103515_15.opt.tour
COMMENT: Optimal solution for Aleatorio1621103515_15 (189.7792249768338)
TYPE: TOUR
DIMENSION: 15
TOUR_SECTION
1 5 6 11 9 7 4 2 13 3 15 8 12 14 10
-1
EOF
